33
100
70	1
69	2
67	2
66	4
65	2
64	1
63	2
62	1
61	1
59	2
58	2
57	1
55	1
54	1
53	1
52	1
51	1
50	1
48	2
47	1
46	1
44	2
40	1
39	2
38	2
33	2
32	2
31	1
30	2
28	1
25	2
21	1
20	1
